38 38
19
3 3 24 30
3 4 24 0
3 5 28 33
3 6 24 4
3 7 24 23
3 8 31 11
3 9 31 29
3 10 31 19
3 11 27 0
3 13 24 10
4 3 34 0
4 5 24 33
4 6 27 11
4 8 34 30
4 11 30 0
4 12 34 3
4 15 34 15
4 16 27 17
24 38 0 0
